max:+ d0 ;

 /* server 0*/
f0s0u0 <= x0s0 + 5.0 u0;
f1s0u0 <= x1s0 + 5.0 u0;
f2s0u0 <= x2s0 + 5.0 u0;
f3s0u0 <= x3s0 + 5.0 u0;
f4s0u0 <= x4s0 + 5.0 u0;
f5s0u0 <= x5s0 + 5.0 u0;
f6s0u0 <= x6s0 + 5.0 u0;
f7s0u0 <= x7s0 + 5.0 u0;
f8s0u0 <= x8s0 + 5.0 u0;
f9s0u0 <= x9s0 + 5.0 u0;
0+ f0s0u0+ f1s0u0+ f2s0u0+ f3s0u0+ f4s0u0+ f5s0u0+ f6s0u0+ f7s0u0+ f8s0u0+ f9s0u0= a0u0;
b0t0 >= 100.0 t0 - 1000.0;
b0t0 >= 0;
b0t0 = a0u0;
d0 = t0 - u0;
d0 >= 0;
0+ f0s0u0+ f1s0u0+ f2s0u0+ f3s0u0+ f4s0u0+ f5s0u0+ f6s0u0+ f7s0u0+ f9s0u0<= 0.0 + 100.0u0;

 /* sigma variables*/
x0s0 = 2059.66451077;
x1s0 = 1636.16593122;
x2s0 = 1525.7079587;
x3s0 = 1403.70217835;
x4s0 = 1281.25846598;
x5s0 = 1157.85991516;
x6s0 = 1031.7544961;
x7s0 = 900.382875;
x8s0 = 800.0;
x9s0 = 2059.66451077;
